(set-info :smt-lib-version 2.6)
(set-logic QF_NRA)
(set-info :source |
Generated by: Michele Chiari, Francesco Pontiggia
Generated on: 2024-02-02
Generator: POMC
Application: Termination analysis of probabilistic Pushdown Automata
Target solver: Z3
Benchmarks generated by the tool POMC to analyze the termination
probability of a probabilistic Pushdown Automaton (pPDA). The benchmark
contains the system of polynomial equations encoding the probability,
and constrains the solution to be in the interval [l, l + eps], where
l is a lower bound computed by value iteration, and eps is a small
tolerance.
The pPDA is the following probabilistic operator precedence automaton:
Initial: (0, call)
DeltaPush:
  [ (0, [(1, call, 1)])
  , (1, [(1, call, 1 % 3), (2, call, 1 % 3), (3, ret, 1 % 3)])
  , (2, [(1, call, 1 % 3), (2, call, 1 % 3), (3, ret, 1 % 3)])
  , (4, [(4, stm, 1)])
  ]
DeltaShift:
  [ (3, [(3, ret, 1)]) ]
DeltaPop:
  [ (3, 1, [(1, call, 1 % 3), (2, call, 1 % 3), (3, ret, 1 % 3)])
  , (3, 2, [(1, call, 1 % 3), (2, call, 1 % 3), (3, ret, 1 % 3)])
  , (3, 0, [(4, stm, 1)])
  , (4, 4, [(4, stm, 1)])
  ]
|)
(set-info :license "https://creativecommons.org/licenses/by/4.0/")
(set-info :category "industrial")
(set-info :status unknown)


(declare-fun |(4,1)!15| () Real)
(declare-fun |(8,1)!12| () Real)
(declare-fun |(4,2)!16| () Real)
(declare-fun |(4,3)!17| () Real)
(declare-fun |(8,2)!13| () Real)
(declare-fun |(8,3)!14| () Real)
(declare-fun |(2,1)!21| () Real)
(declare-fun |(2,2)!22| () Real)
(declare-fun |(2,3)!23| () Real)
(declare-fun |(3,1)!18| () Real)
(declare-fun |(3,2)!19| () Real)
(declare-fun |(3,3)!20| () Real)
(assert (let ((a!1 (+ (* (/ 1.0 3.0)
                 (+ (* (/ 1.0 3.0)
                       (/ 1.0 3.0))
                    (* (/ 1.0 3.0) |(8,1)!12|)
                    (* (/ 1.0 3.0) |(4,1)!15|)))
              (* (/ 1.0 3.0)
                 (+ (* |(8,3)!14| (/ 1.0 3.0))
                    (* |(8,2)!13| |(8,1)!12|)
                    (* |(8,1)!12| |(4,1)!15|)))
              (* (/ 1.0 3.0)
                 (+ (* |(4,3)!17| (/ 1.0 3.0))
                    (* |(4,2)!16| |(8,1)!12|)
                    (* |(4,1)!15| |(4,1)!15|))))))
  (>= |(8,1)!12| a!1)))
(assert (>= |(8,1)!12| 0.0))
(assert (let ((a!1 (+ (* (/ 1.0 3.0)
                 (+ (* (/ 1.0 3.0)
                       (/ 1.0 3.0))
                    (* (/ 1.0 3.0) |(8,2)!13|)
                    (* (/ 1.0 3.0) |(4,2)!16|)))
              (* (/ 1.0 3.0)
                 (+ (* |(8,3)!14| (/ 1.0 3.0))
                    (* |(8,2)!13| |(8,2)!13|)
                    (* |(8,1)!12| |(4,2)!16|)))
              (* (/ 1.0 3.0)
                 (+ (* |(4,3)!17| (/ 1.0 3.0))
                    (* |(4,2)!16| |(8,2)!13|)
                    (* |(4,1)!15| |(4,2)!16|))))))
  (>= |(8,2)!13| a!1)))
(assert (>= |(8,2)!13| 0.0))
(assert (let ((a!1 (+ (* (/ 1.0 3.0)
                 (+ (* (/ 1.0 3.0)
                       (/ 1.0 3.0))
                    (* (/ 1.0 3.0) |(8,3)!14|)
                    (* (/ 1.0 3.0) |(4,3)!17|)))
              (* (/ 1.0 3.0)
                 (+ (* |(8,3)!14| (/ 1.0 3.0))
                    (* |(8,2)!13| |(8,3)!14|)
                    (* |(8,1)!12| |(4,3)!17|)))
              (* (/ 1.0 3.0)
                 (+ (* |(4,3)!17| (/ 1.0 3.0))
                    (* |(4,2)!16| |(8,3)!14|)
                    (* |(4,1)!15| |(4,3)!17|))))))
  (>= |(8,3)!14| a!1)))
(assert (>= |(8,3)!14| 0.0))
(assert (let ((a!1 (+ (* (/ 1.0 3.0)
                 (+ (* (/ 1.0 3.0)
                       (/ 1.0 3.0))
                    (* (/ 1.0 3.0) |(8,1)!12|)
                    (* (/ 1.0 3.0) |(4,1)!15|)))
              (* (/ 1.0 3.0)
                 (+ (* |(3,3)!20| (/ 1.0 3.0))
                    (* |(3,2)!19| |(8,1)!12|)
                    (* |(3,1)!18| |(4,1)!15|)))
              (* (/ 1.0 3.0)
                 (+ (* |(2,3)!23| (/ 1.0 3.0))
                    (* |(2,2)!22| |(8,1)!12|)
                    (* |(2,1)!21| |(4,1)!15|))))))
  (>= |(4,1)!15| a!1)))
(assert (>= |(4,1)!15| 0.0))
(assert (let ((a!1 (+ (* (/ 1.0 3.0)
                 (+ (* (/ 1.0 3.0)
                       (/ 1.0 3.0))
                    (* (/ 1.0 3.0) |(8,2)!13|)
                    (* (/ 1.0 3.0) |(4,2)!16|)))
              (* (/ 1.0 3.0)
                 (+ (* |(3,3)!20| (/ 1.0 3.0))
                    (* |(3,2)!19| |(8,2)!13|)
                    (* |(3,1)!18| |(4,2)!16|)))
              (* (/ 1.0 3.0)
                 (+ (* |(2,3)!23| (/ 1.0 3.0))
                    (* |(2,2)!22| |(8,2)!13|)
                    (* |(2,1)!21| |(4,2)!16|))))))
  (>= |(4,2)!16| a!1)))
(assert (>= |(4,2)!16| 0.0))
(assert (let ((a!1 (+ (* (/ 1.0 3.0)
                 (+ (* (/ 1.0 3.0)
                       (/ 1.0 3.0))
                    (* (/ 1.0 3.0) |(8,3)!14|)
                    (* (/ 1.0 3.0) |(4,3)!17|)))
              (* (/ 1.0 3.0)
                 (+ (* |(3,3)!20| (/ 1.0 3.0))
                    (* |(3,2)!19| |(8,3)!14|)
                    (* |(3,1)!18| |(4,3)!17|)))
              (* (/ 1.0 3.0)
                 (+ (* |(2,3)!23| (/ 1.0 3.0))
                    (* |(2,2)!22| |(8,3)!14|)
                    (* |(2,1)!21| |(4,3)!17|))))))
  (>= |(4,3)!17| a!1)))
(assert (>= |(4,3)!17| 0.0))
(assert (let ((a!1 (+ (* (/ 1.0 3.0)
                 (+ (* (/ 1.0 3.0)
                       (/ 1.0 3.0))
                    (* (/ 1.0 3.0) |(3,1)!18|)
                    (* (/ 1.0 3.0) |(2,1)!21|)))
              (* (/ 1.0 3.0)
                 (+ (* |(8,3)!14| (/ 1.0 3.0))
                    (* |(8,2)!13| |(3,1)!18|)
                    (* |(8,1)!12| |(2,1)!21|)))
              (* (/ 1.0 3.0)
                 (+ (* |(4,3)!17| (/ 1.0 3.0))
                    (* |(4,2)!16| |(3,1)!18|)
                    (* |(4,1)!15| |(2,1)!21|))))))
  (>= |(3,1)!18| a!1)))
(assert (>= |(3,1)!18| 0.0))
(assert (let ((a!1 (+ (* (/ 1.0 3.0)
                 (+ (* (/ 1.0 3.0)
                       (/ 1.0 3.0))
                    (* (/ 1.0 3.0) |(3,2)!19|)
                    (* (/ 1.0 3.0) |(2,2)!22|)))
              (* (/ 1.0 3.0)
                 (+ (* |(8,3)!14| (/ 1.0 3.0))
                    (* |(8,2)!13| |(3,2)!19|)
                    (* |(8,1)!12| |(2,2)!22|)))
              (* (/ 1.0 3.0)
                 (+ (* |(4,3)!17| (/ 1.0 3.0))
                    (* |(4,2)!16| |(3,2)!19|)
                    (* |(4,1)!15| |(2,2)!22|))))))
  (>= |(3,2)!19| a!1)))
(assert (>= |(3,2)!19| 0.0))
(assert (let ((a!1 (+ (* (/ 1.0 3.0)
                 (+ (* (/ 1.0 3.0)
                       (/ 1.0 3.0))
                    (* (/ 1.0 3.0) |(3,3)!20|)
                    (* (/ 1.0 3.0) |(2,3)!23|)))
              (* (/ 1.0 3.0)
                 (+ (* |(8,3)!14| (/ 1.0 3.0))
                    (* |(8,2)!13| |(3,3)!20|)
                    (* |(8,1)!12| |(2,3)!23|)))
              (* (/ 1.0 3.0)
                 (+ (* |(4,3)!17| (/ 1.0 3.0))
                    (* |(4,2)!16| |(3,3)!20|)
                    (* |(4,1)!15| |(2,3)!23|))))))
  (>= |(3,3)!20| a!1)))
(assert (>= |(3,3)!20| 0.0))
(assert (let ((a!1 (+ (* (/ 1.0 3.0)
                 (+ (* (/ 1.0 3.0)
                       (/ 1.0 3.0))
                    (* (/ 1.0 3.0) |(3,1)!18|)
                    (* (/ 1.0 3.0) |(2,1)!21|)))
              (* (/ 1.0 3.0)
                 (+ (* |(3,3)!20| (/ 1.0 3.0))
                    (* |(3,2)!19| |(3,1)!18|)
                    (* |(3,1)!18| |(2,1)!21|)))
              (* (/ 1.0 3.0)
                 (+ (* |(2,3)!23| (/ 1.0 3.0))
                    (* |(2,2)!22| |(3,1)!18|)
                    (* |(2,1)!21| |(2,1)!21|))))))
  (>= |(2,1)!21| a!1)))
(assert (>= |(2,1)!21| 0.0))
(assert (let ((a!1 (+ (* (/ 1.0 3.0)
                 (+ (* (/ 1.0 3.0)
                       (/ 1.0 3.0))
                    (* (/ 1.0 3.0) |(3,2)!19|)
                    (* (/ 1.0 3.0) |(2,2)!22|)))
              (* (/ 1.0 3.0)
                 (+ (* |(3,3)!20| (/ 1.0 3.0))
                    (* |(3,2)!19| |(3,2)!19|)
                    (* |(3,1)!18| |(2,2)!22|)))
              (* (/ 1.0 3.0)
                 (+ (* |(2,3)!23| (/ 1.0 3.0))
                    (* |(2,2)!22| |(3,2)!19|)
                    (* |(2,1)!21| |(2,2)!22|))))))
  (>= |(2,2)!22| a!1)))
(assert (>= |(2,2)!22| 0.0))
(assert (let ((a!1 (+ (* (/ 1.0 3.0)
                 (+ (* (/ 1.0 3.0)
                       (/ 1.0 3.0))
                    (* (/ 1.0 3.0) |(3,3)!20|)
                    (* (/ 1.0 3.0) |(2,3)!23|)))
              (* (/ 1.0 3.0)
                 (+ (* |(3,3)!20| (/ 1.0 3.0))
                    (* |(3,2)!19| |(3,3)!20|)
                    (* |(3,1)!18| |(2,3)!23|)))
              (* (/ 1.0 3.0)
                 (+ (* |(2,3)!23| (/ 1.0 3.0))
                    (* |(2,2)!22| |(3,3)!20|)
                    (* |(2,1)!21| |(2,3)!23|))))))
  (>= |(2,3)!23| a!1)))
(assert (>= |(2,3)!23| 0.0))
(assert (>= |(3,3)!20| (/ 228336.0 2740033.0)))
(assert (<= |(3,3)!20| (+ (/ 228336.0 2740033.0) (/ 1.0 33554432.0))))
(assert (>= |(3,2)!19| (/ 228562.0 2742745.0)))
(assert (<= |(3,2)!19| (+ (/ 228562.0 2742745.0) (/ 1.0 33554432.0))))
(assert (>= |(4,3)!17| (/ 228910.0 2746921.0)))
(assert (<= |(4,3)!17| (+ (/ 228910.0 2746921.0) (/ 1.0 33554432.0))))
(assert (>= |(8,1)!12| (/ 228104.0 2737249.0)))
(assert (<= |(8,1)!12| (+ (/ 228104.0 2737249.0) (/ 1.0 33554432.0))))
(assert (>= |(8,3)!14| (/ 229709.0 2756509.0)))
(assert (<= |(8,3)!14| (+ (/ 229709.0 2756509.0) (/ 1.0 33554432.0))))
(assert (>= |(8,2)!13| (/ 230182.0 2762185.0)))
(assert (<= |(8,2)!13| (+ (/ 230182.0 2762185.0) (/ 1.0 33554432.0))))
(assert (>= |(4,2)!16| (/ 229113.0 2749357.0)))
(assert (<= |(4,2)!16| (+ (/ 229113.0 2749357.0) (/ 1.0 33554432.0))))
(assert (>= |(4,1)!15| (/ 229156.0 2749873.0)))
(assert (<= |(4,1)!15| (+ (/ 229156.0 2749873.0) (/ 1.0 33554432.0))))
(assert (>= |(2,1)!21| (/ 226181.0 2714173.0)))
(assert (<= |(2,1)!21| (+ (/ 226181.0 2714173.0) (/ 1.0 33554432.0))))
(assert (>= |(3,1)!18| (/ 228278.0 2739337.0)))
(assert (<= |(3,1)!18| (+ (/ 228278.0 2739337.0) (/ 1.0 33554432.0))))
(assert (>= |(2,3)!23| (/ 226421.0 2717053.0)))
(assert (<= |(2,3)!23| (+ (/ 226421.0 2717053.0) (/ 1.0 33554432.0))))
(assert (>= |(2,2)!22| (/ 227351.0 2728213.0)))
(assert (<= |(2,2)!22| (+ (/ 227351.0 2728213.0) (/ 1.0 33554432.0))))

(check-sat)
(exit)
